38 15 84 75 45 44 78 50 70 4 74 16 6 24 11 57 73 51 21 35 28 66 81 54 98 36 22 77 68 23 29 65 52 9 53 71 43 14 10 2 61 64 37 30 18 97 58 76 5 88 82 34 19 96 48 62 8 41 90 93 95 46 85 7 56 60 32 40 94 3 63 92 49 72 1 86 31 80 99 59 47 26 20 17 13 67 0 89 12 27 55 79 87 69 25 83 33 39 91 42 

